/*********************************************
 * OPL 12.6.0.0 Data
 * Author: LENOVO
 * Creation Date: 26-Jul-2020 at 11:25:47 AM
 *********************************************/

 n = 5;
 
 cost = [
 110
 120
 130
 110
 115
 ];
 
 hr = [
 8.8
 6.1
 2.0
 4.2
 5.0
 ];